[[55, 18, 50, 32, 44, 3, 16, 24, 49, 23, 56, 41, 64, 42, 43, 63, 33, 73, 2, 62, 22, 28, 61, 21, 74], [48, 47, 69, 36, 71, 60, 70, 20, 37, 5, 15, 57, 29, 13, 27, 52, 45, 4, 30, 68, 75, 76, 6, 51, 17, 40], [12, 26, 67, 34, 46, 7, 8, 35, 54, 19, 53, 14, 59, 11, 66, 65, 38, 58, 10, 31, 72, 39, 9, 25]]